nbrTasks = 46;
nbrMachines = 2;
nbrTools = 2;
nbrCycles = 2;
names = ["Mount ring on top-button, mount1","Mount button on top","Change to bottom-grabber tool","Put bottom-switch on table","Take button1","Lift top-button, support","Lift top-button, hold top-button","Take bottom-switch","Angle top-button1","Take switch","Mount switch in bottom","Take top","Put bottom in fixture1","Mount ring on top-button, hold1","Mount button on top1","Put top in fixture","Put bottom in fixture","Lift top-button, support1","Take top-button-ring from top-tray1","Mount ring on top-button, mount","Take top-button from fixture","Take bottom1","Put top-button-ring in top-tray1","Take top-button-ring from top-tray","Fixate top-button-ring","Fixate top-button-ring1","Take switch1","Put bottom-switch on table1","Take ring","Mount top-button-ring on bottom-switch","Turn top-button1","Lift top-button, hold top-button1","Take button","Change to bottom-grabber tool1","Take ring1","Angle top-button","Take top-button from fixture1","Turn top-button","Put top in fixture1","Take bottom-switch1","Take bottom","Mount top-button-ring on bottom-switch1","Mount switch in bottom1","Put top-button-ring in top-tray","Take top1","Mount ring on top-button, hold"];

duration = [260,25,60,5,5,5,5,0,5,5,15,5,10,260,25,10,10,5,5,260,5,5,5,5,15,15,5,5,10,15,20,5,5,60,10,5,5,20,10,0,5,15,15,5,5,260];

identicalTasks = [{2,15},{3,34},{4,28},{6,18},{7,32},{8,40},{10,27},{11,43},{12,45},{16,39},{13,17},{1,20},{21,37},{19,24},{25,26},{29,35},{30,42},{5,33},{9,36},{31,38},{22,41},{23,44},{14,46}];

cycleNbr = [1,0,0,0,1,0,0,0,1,0,0,0,1,1,1,0,0,1,1,0,0,1,1,0,0,1,1,1,0,0,1,1,0,1,1,0,1,0,1,1,0,1,1,0,1,0];

% Trays
% 1: Ring tray
% 2: Switch tray
% 3: Button tray
% 4: Bottom tray
% 5: top-tray
tray = [0,0,0,0,3,0,0,0,0,2,0,5,0,0,0,0,0,0,5,0,0,4,5,5,0,0,2,0,1,0,0,0,3,0,1,0,0,0,0,0,4,0,0,5,5,0];

% Fixtures
% 1: Front fixture
fixture = [0,1,0,0,0,0,0,1,1,0,1,0,1,0,1,1,1,0,0,0,1,0,0,0,1,1,0,0,0,0,0,0,0,0,0,1,1,0,1,1,0,0,1,0,0,0];

% Components
% 1: Top
% 2: Switch
% 3: Top1
% 4: Ring
% 5: Top-Button1
% 6: Top-Button-Ring1
% 7: Top-Button
% 8: Ring1
% 9: Switch1
% 10: Complete1
% 11: Bottom
% 12: Bottom-Switch1
% 13: Button
% 14: Bottom-Switch
% 15: Top-Button-Ring
% 16: Bottom1
% 17: Button1
% 18: Complete
componentsUsed = [{8},{1,13},{},{14},{17},{7},{7},{14},{5},{2},{11,2},{1},{16},{5},{3,17},{1},{11},{5},{6},{4},{7},{16},{6},{15},{15},{6},{9},{12},{4},{15,14},{5},{5},{13},{},{8},{7},{5},{7},{3},{12},{11},{6,12},{16,9},{15},{3},{7}];
nbrComponents = 18;

component_created = [6,7,0,0,0,0,0,0,0,0,14,0,0,6,5,0,0,0,0,15,0,0,0,0,0,0,0,0,0,18,0,0,0,0,0,0,0,0,0,0,0,10,12,0,0,15];

% putting a component
putting = {4,13,16,17,23,28,39,44};

% mounting a component
mounting = {1,2,11,14,15,20,30,42,43,46};

% taking a component
taking = {5,8,10,12,19,21,22,24,27,29,33,35,37,40,41,45};

% moving a component
moving = {6,7,9,18,25,26,31,32,36,38};

concurrentTasks = [{7,6},{46,20},{32,18},{14,1}];
nbrConcurrentGroups = 4;

order = [|
21,36,7,38,46,25,44|
37,9,32,31,14,26,23|];
maxOrderedLength = 7;
orderedGroups = 2;

times = [|
0,7,3,8,7,0,0,7,7,6,7,3,7,0,7,7,7,0,3,0,7,4,3,3,7,7,6,8,7,8,0,0,7,3,7,7,7,0,7,7,4,8,7,3,3,0|
0,7,3,8,7,0,0,7,7,6,7,3,7,0,7,7,7,0,3,0,7,4,3,3,7,7,6,8,7,8,0,0,7,3,7,7,7,0,7,7,4,8,7,3,3,0|
7,0,10,2,3,7,7,0,0,5,0,8,0,7,0,0,0,7,8,7,0,8,8,8,1,1,5,2,9,2,7,7,3,10,9,0,0,7,0,0,8,2,0,8,8,7|
3,10,0,10,10,3,3,10,10,8,10,5,10,3,10,10,10,3,5,3,10,4,5,5,10,10,8,10,7,10,3,3,10,0,7,10,10,3,10,10,4,10,10,5,5,3|
8,2,10,0,5,8,8,2,2,4,2,9,2,8,2,2,2,8,9,8,2,7,9,9,1,1,4,0,8,0,8,8,5,10,8,2,2,8,2,2,7,0,2,9,9,8|
7,3,10,5,0,7,7,3,3,8,3,7,3,7,3,3,3,7,7,7,3,9,7,7,4,4,8,5,11,5,7,7,0,10,11,3,3,7,3,3,9,5,3,7,7,7|
7,0,10,2,3,7,7,0,0,5,0,8,0,7,0,0,0,7,8,7,0,8,8,8,1,1,5,2,9,2,7,7,3,10,9,0,0,7,0,0,8,2,0,8,8,7|
7,0,10,2,3,7,7,0,0,5,0,8,0,7,0,0,0,7,8,7,0,8,8,8,1,1,5,2,9,2,7,7,3,10,9,0,0,7,0,0,8,2,0,8,8,7|
7,0,10,2,3,7,7,0,0,5,0,8,0,7,0,0,0,7,8,7,0,8,8,8,1,1,5,2,9,2,7,7,3,10,9,0,0,7,0,0,8,2,0,8,8,7|
7,0,10,2,3,7,7,0,0,5,0,8,0,7,0,0,0,7,8,7,0,8,8,8,1,1,5,2,9,2,7,7,3,10,9,0,0,7,0,0,8,2,0,8,8,7|
6,5,8,4,8,6,6,5,5,0,5,9,5,6,5,5,5,6,9,6,5,4,9,9,4,4,0,4,4,4,6,6,8,8,4,5,5,6,5,5,4,4,5,9,9,6|
7,0,10,2,3,7,7,0,0,5,0,8,0,7,0,0,0,7,8,7,0,8,8,8,1,1,5,2,9,2,7,7,3,10,9,0,0,7,0,0,8,2,0,8,8,7|
3,8,5,9,7,3,3,8,8,9,8,0,8,3,8,8,8,3,0,3,8,7,0,0,9,9,9,9,10,9,3,3,7,5,10,8,8,3,8,8,7,9,8,0,0,3|
7,0,10,2,3,7,7,0,0,5,0,8,0,7,0,0,0,7,8,7,0,8,8,8,1,1,5,2,9,2,7,7,3,10,9,0,0,7,0,0,8,2,0,8,8,7|
0,7,3,8,7,0,0,7,7,6,7,3,7,0,7,7,7,0,3,0,7,4,3,3,7,7,6,8,7,8,0,0,7,3,7,7,7,0,7,7,4,8,7,3,3,0|
7,0,10,2,3,7,7,0,0,5,0,8,0,7,0,0,0,7,8,7,0,8,8,8,1,1,5,2,9,2,7,7,3,10,9,0,0,7,0,0,8,2,0,8,8,7|
7,0,10,2,3,7,7,0,0,5,0,8,0,7,0,0,0,7,8,7,0,8,8,8,1,1,5,2,9,2,7,7,3,10,9,0,0,7,0,0,8,2,0,8,8,7|
7,0,10,2,3,7,7,0,0,5,0,8,0,7,0,0,0,7,8,7,0,8,8,8,1,1,5,2,9,2,7,7,3,10,9,0,0,7,0,0,8,2,0,8,8,7|
7,0,10,2,3,7,7,0,0,5,0,8,0,7,0,0,0,7,8,7,0,8,8,8,1,1,5,2,9,2,7,7,3,10,9,0,0,7,0,0,8,2,0,8,8,7|
3,8,5,9,7,3,3,8,8,9,8,0,8,3,8,8,8,3,0,3,8,7,0,0,9,9,9,9,10,9,3,3,7,5,10,8,8,3,8,8,7,9,8,0,0,3|
0,7,3,8,7,0,0,7,7,6,7,3,7,0,7,7,7,0,3,0,7,4,3,3,7,7,6,8,7,8,0,0,7,3,7,7,7,0,7,7,4,8,7,3,3,0|
7,0,10,2,3,7,7,0,0,5,0,8,0,7,0,0,0,7,8,7,0,8,8,8,1,1,5,2,9,2,7,7,3,10,9,0,0,7,0,0,8,2,0,8,8,7|
4,8,4,7,9,4,4,8,8,4,8,7,8,4,8,8,8,4,7,4,8,0,7,7,7,7,4,7,3,7,4,4,9,4,3,8,8,4,8,8,0,7,8,7,7,4|
3,8,5,9,7,3,3,8,8,9,8,0,8,3,8,8,8,3,0,3,8,7,0,0,9,9,9,9,10,9,3,3,7,5,10,8,8,3,8,8,7,9,8,0,0,3|
3,8,5,9,7,3,3,8,8,9,8,0,8,3,8,8,8,3,0,3,8,7,0,0,9,9,9,9,10,9,3,3,7,5,10,8,8,3,8,8,7,9,8,0,0,3|
7,1,10,1,4,7,7,1,1,4,1,9,1,7,1,1,1,7,9,7,1,7,9,9,0,0,4,1,9,1,7,7,4,10,9,1,1,7,1,1,7,1,1,9,9,7|
7,1,10,1,4,7,7,1,1,4,1,9,1,7,1,1,1,7,9,7,1,7,9,9,0,0,4,1,9,1,7,7,4,10,9,1,1,7,1,1,7,1,1,9,9,7|
6,5,8,4,8,6,6,5,5,0,5,9,5,6,5,5,5,6,9,6,5,4,9,9,4,4,0,4,4,4,6,6,8,8,4,5,5,6,5,5,4,4,5,9,9,6|
8,2,10,0,5,8,8,2,2,4,2,9,2,8,2,2,2,8,9,8,2,7,9,9,1,1,4,0,8,0,8,8,5,10,8,2,2,8,2,2,7,0,2,9,9,8|
7,9,7,8,11,7,7,9,9,4,9,10,9,7,9,9,9,7,10,7,9,3,10,10,9,9,4,8,0,8,7,7,11,7,0,9,9,7,9,9,3,8,9,10,10,7|
8,2,10,0,5,8,8,2,2,4,2,9,2,8,2,2,2,8,9,8,2,7,9,9,1,1,4,0,8,0,8,8,5,10,8,2,2,8,2,2,7,0,2,9,9,8|
0,7,3,8,7,0,0,7,7,6,7,3,7,0,7,7,7,0,3,0,7,4,3,3,7,7,6,8,7,8,0,0,7,3,7,7,7,0,7,7,4,8,7,3,3,0|
7,0,10,2,3,7,7,0,0,5,0,8,0,7,0,0,0,7,8,7,0,8,8,8,1,1,5,2,9,2,7,7,3,10,9,0,0,7,0,0,8,2,0,8,8,7|
7,3,10,5,0,7,7,3,3,8,3,7,3,7,3,3,3,7,7,7,3,9,7,7,4,4,8,5,11,5,7,7,0,10,11,3,3,7,3,3,9,5,3,7,7,7|
3,10,0,10,10,3,3,10,10,8,10,5,10,3,10,10,10,3,5,3,10,4,5,5,10,10,8,10,7,10,3,3,10,0,7,10,10,3,10,10,4,10,10,5,5,3|
7,9,7,8,11,7,7,9,9,4,9,10,9,7,9,9,9,7,10,7,9,3,10,10,9,9,4,8,0,8,7,7,11,7,0,9,9,7,9,9,3,8,9,10,10,7|
7,0,10,2,3,7,7,0,0,5,0,8,0,7,0,0,0,7,8,7,0,8,8,8,1,1,5,2,9,2,7,7,3,10,9,0,0,7,0,0,8,2,0,8,8,7|
7,0,10,2,3,7,7,0,0,5,0,8,0,7,0,0,0,7,8,7,0,8,8,8,1,1,5,2,9,2,7,7,3,10,9,0,0,7,0,0,8,2,0,8,8,7|
0,7,3,8,7,0,0,7,7,6,7,3,7,0,7,7,7,0,3,0,7,4,3,3,7,7,6,8,7,8,0,0,7,3,7,7,7,0,7,7,4,8,7,3,3,0|
7,0,10,2,3,7,7,0,0,5,0,8,0,7,0,0,0,7,8,7,0,8,8,8,1,1,5,2,9,2,7,7,3,10,9,0,0,7,0,0,8,2,0,8,8,7|
7,0,10,2,3,7,7,0,0,5,0,8,0,7,0,0,0,7,8,7,0,8,8,8,1,1,5,2,9,2,7,7,3,10,9,0,0,7,0,0,8,2,0,8,8,7|
4,8,4,7,9,4,4,8,8,4,8,7,8,4,8,8,8,4,7,4,8,0,7,7,7,7,4,7,3,7,4,4,9,4,3,8,8,4,8,8,0,7,8,7,7,4|
8,2,10,0,5,8,8,2,2,4,2,9,2,8,2,2,2,8,9,8,2,7,9,9,1,1,4,0,8,0,8,8,5,10,8,2,2,8,2,2,7,0,2,9,9,8|
7,0,10,2,3,7,7,0,0,5,0,8,0,7,0,0,0,7,8,7,0,8,8,8,1,1,5,2,9,2,7,7,3,10,9,0,0,7,0,0,8,2,0,8,8,7|
3,8,5,9,7,3,3,8,8,9,8,0,8,3,8,8,8,3,0,3,8,7,0,0,9,9,9,9,10,9,3,3,7,5,10,8,8,3,8,8,7,9,8,0,0,3|
3,8,5,9,7,3,3,8,8,9,8,0,8,3,8,8,8,3,0,3,8,7,0,0,9,9,9,9,10,9,3,3,7,5,10,8,8,3,8,8,7,9,8,0,0,3|
0,7,3,8,7,0,0,7,7,6,7,3,7,0,7,7,7,0,3,0,7,4,3,3,7,7,6,8,7,8,0,0,7,3,7,7,7,0,7,7,4,8,7,3,3,0|];

% Tools
% 1: tool1
% 2: tool2
tools_needed = [1,1,0,2,1,0,1,2,1,2,2,1,2,1,1,1,2,0,1,1,1,2,1,1,1,1,2,2,1,1,1,1,1,0,1,1,1,1,1,2,2,1,2,1,1,1];

changesTool = {3,34};
changesToTool = [0,0,2,0,0,0,0,0,0,0,0,0,0,0,0,0,0,0,0,0,0,0,0,0,0,0,0,0,0,0,0,0,0,2,0,0,0,0,0,0,0,0,0,0,0,0];

default_tool = [1,1];
